12
48
1212
1159
1003
837
886
1061
1143
1142
1079
996
972
652
55	55
487	487
424	424
958	958
755	755
831	831
726	726
675	675
805	805
488	488
612	612
451	451
770	770
616	616
451	451
992	992
93	93
647	647
722	722
232	232
148	148
365	365
98	98
240	240
40	40
657	657
26	26
452	452
982	982
585	585
530	530
195	195
964	964
535	535
780	780
760	760
976	976
285	285
813	813
102	102
136	136
58	58
673	673
112	112
786	786
711	711
243	243
242	242
